p cnf 609 1658
1 3 51 0
-1 3 -51 0
1 -3 -51 0
-1 -3 51 0
9 -10 52 0
-9 -10 -52 0
9 10 -52 0
-9 10 52 0
11 12 53 0
-11 12 -53 0
11 -12 -53 0
-11 -12 53 0
13 -15 54 0
-13 -15 -54 0
13 15 -54 0
-13 15 54 0
17 18 55 0
-17 18 -55 0
17 -18 -55 0
-17 -18 55 0
19 20 56 0
-19 20 -56 0
19 -20 -56 0
-19 -20 56 0
-26 28 57 0
26 28 -57 0
-26 -28 -57 0
26 -28 57 0
-29 30 58 0
29 30 -58 0
-29 -30 -58 0
29 -30 58 0
-33 -34 59 0
33 -34 -59 0
-33 34 -59 0
33 34 59 0
37 39 60 0
-37 39 -60 0
37 -39 -60 0
-37 -39 60 0
40 -41 61 0
-40 -41 -61 0
40 41 -61 0
-40 41 61 0
44 46 62 0
-44 46 -62 0
44 -46 -62 0
-44 -46 62 0
-47 49 63 0
47 49 -63 0
-47 -49 -63 0
47 -49 63 0
50 -51 64 0
-50 -51 -64 0
50 51 -64 0
-50 51 64 0
52 -53 65 0
-52 -53 -65 0
52 53 -65 0
-52 53 65 0
54 -55 66 0
-54 -55 -66 0
54 55 -66 0
-54 55 66 0
56 -57 67 0
-56 -57 -67 0
56 57 -67 0
-56 57 67 0
58 -59 68 0
-58 -59 -68 0
58 59 -68 0
-58 59 68 0
60 -61 69 0
-60 -61 -69 0
60 61 -69 0
-60 61 69 0
62 -63 70 0
-62 -63 -70 0
62 63 -70 0
-62 63 70 0
64 -65 71 0
-64 -65 -71 0
64 65 -71 0
-64 65 71 0
66 -67 72 0
-66 -67 -72 0
66 67 -72 0
-66 67 72 0
68 -69 73 0
-68 -69 -73 0
68 69 -73 0
-68 69 73 0
70 -71 74 0
-70 -71 -74 0
70 71 -74 0
-70 71 74 0
72 -73 75 0
-72 -73 -75 0
72 73 -75 0
-72 73 75 0
74 75 0
-74 -75 0
-1 2 76 0
1 2 -76 0
-1 -2 -76 0
1 -2 76 0
-3 6 77 0
3 6 -77 0
-3 -6 -77 0
3 -6 77 0
7 8 78 0
-7 8 -78 0
7 -8 -78 0
-7 -8 78 0
-10 -15 79 0
10 -15 -79 0
-10 15 -79 0
10 15 79 0
16 18 80 0
-16 18 -80 0
16 -18 -80 0
-16 -18 80 0
-19 22 81 0
19 22 -81 0
-19 -22 -81 0
19 -22 81 0
-24 -25 82 0
24 -25 -82 0
-24 25 -82 0
24 25 82 0
28 -29 83 0
-28 -29 -83 0
28 29 -83 0
-28 29 83 0
30 -36 84 0
-30 -36 -84 0
30 36 -84 0
-30 36 84 0
38 -39 85 0
-38 -39 -85 0
38 39 -85 0
-38 39 85 0
-42 45 86 0
42 45 -86 0
-42 -45 -86 0
42 -45 86 0
75 -76 87 0
-75 -76 -87 0
75 76 -87 0
-75 76 87 0
77 -78 88 0
-77 -78 -88 0
77 78 -88 0
-77 78 88 0
79 -80 89 0
-79 -80 -89 0
79 80 -89 0
-79 80 89 0
81 -82 90 0
-81 -82 -90 0
81 82 -90 0
-81 82 90 0
83 -84 91 0
-83 -84 -91 0
83 84 -91 0
-83 84 91 0
85 -86 92 0
-85 -86 -92 0
85 86 -92 0
-85 86 92 0
87 -88 93 0
-87 -88 -93 0
87 88 -93 0
-87 88 93 0
89 -90 94 0
-89 -90 -94 0
89 90 -94 0
-89 90 94 0
91 -92 95 0
-91 -92 -95 0
91 92 -95 0
-91 92 95 0
-93 -94 95 0
93 -94 -95 0
-93 94 -95 0
93 94 95 0
-1 2 96 0
1 2 -96 0
-1 -2 -96 0
1 -2 96 0
3 4 97 0
-3 4 -97 0
3 -4 -97 0
-3 -4 97 0
-5 -7 98 0
5 -7 -98 0
-5 7 -98 0
5 7 98 0
-9 10 99 0
9 10 -99 0
-9 -10 -99 0
9 -10 99 0
13 15 100 0
-13 15 -100 0
13 -15 -100 0
-13 -15 100 0
-16 -19 101 0
16 -19 -101 0
-16 19 -101 0
16 19 101 0
20 -21 102 0
-20 -21 -102 0
20 21 -102 0
-20 21 102 0
-25 -27 103 0
25 -27 -103 0
-25 27 -103 0
25 27 103 0
28 -30 104 0
-28 -30 -104 0
28 30 -104 0
-28 30 104 0
-32 -34 105 0
32 -34 -105 0
-32 34 -105 0
32 34 105 0
-35 36 106 0
35 36 -106 0
-35 -36 -106 0
35 -36 106 0
38 39 107 0
-38 39 -107 0
38 -39 -107 0
-38 -39 107 0
40 -41 108 0
-40 -41 -108 0
40 41 -108 0
-40 41 108 0
-45 46 109 0
45 46 -109 0
-45 -46 -109 0
45 -46 109 0
47 -50 110 0
-47 -50 -110 0
47 50 -110 0
-47 50 110 0
96 -97 111 0
-96 -97 -111 0
96 97 -111 0
-96 97 111 0
98 -99 112 0
-98 -99 -112 0
98 99 -112 0
-98 99 112 0
100 -101 113 0
-100 -101 -113 0
100 101 -113 0
-100 101 113 0
102 -103 114 0
-102 -103 -114 0
102 103 -114 0
-102 103 114 0
104 -105 115 0
-104 -105 -115 0
104 105 -115 0
-104 105 115 0
106 -107 116 0
-106 -107 -116 0
106 107 -116 0
-106 107 116 0
108 -109 117 0
-108 -109 -117 0
108 109 -117 0
-108 109 117 0
110 -111 118 0
-110 -111 -118 0
110 111 -118 0
-110 111 118 0
112 -113 119 0
-112 -113 -119 0
112 113 -119 0
-112 113 119 0
114 -115 120 0
-114 -115 -120 0
114 115 -120 0
-114 115 120 0
116 -117 121 0
-116 -117 -121 0
116 117 -121 0
-116 117 121 0
118 -119 122 0
-118 -119 -122 0
118 119 -122 0
-118 119 122 0
120 -121 123 0
-120 -121 -123 0
120 121 -123 0
-120 121 123 0
122 123 0
-122 -123 0
-1 3 124 0
1 3 -124 0
-1 -3 -124 0
1 -3 124 0
-6 -8 125 0
6 -8 -125 0
-6 8 -125 0
6 8 125 0
-12 14 126 0
12 14 -126 0
-12 -14 -126 0
12 -14 126 0
16 -17 127 0
-16 -17 -127 0
16 17 -127 0
-16 17 127 0
18 -21 128 0
-18 -21 -128 0
18 21 -128 0
-18 21 128 0
-23 -24 129 0
23 -24 -129 0
-23 24 -129 0
23 24 129 0
-26 29 130 0
26 29 -130 0
-26 -29 -130 0
26 -29 130 0
30 -31 131 0
-30 -31 -131 0
30 31 -131 0
-30 31 131 0
32 -33 132 0
-32 -33 -132 0
32 33 -132 0
-32 33 132 0
-34 35 133 0
34 35 -133 0
-34 -35 -133 0
34 -35 133 0
36 -39 134 0
-36 -39 -134 0
36 39 -134 0
-36 39 134 0
40 43 135 0
-40 43 -135 0
40 -43 -135 0
-40 -43 135 0
44 47 136 0
-44 47 -136 0
44 -47 -136 0
-44 -47 136 0
123 -124 137 0
-123 -124 -137 0
123 124 -137 0
-123 124 137 0
125 -126 138 0
-125 -126 -138 0
125 126 -138 0
-125 126 138 0
127 -128 139 0
-127 -128 -139 0
127 128 -139 0
-127 128 139 0
129 -130 140 0
-129 -130 -140 0
129 130 -140 0
-129 130 140 0
131 -132 141 0
-131 -132 -141 0
131 132 -141 0
-131 132 141 0
133 -134 142 0
-133 -134 -142 0
133 134 -142 0
-133 134 142 0
135 -136 143 0
-135 -136 -143 0
135 136 -143 0
-135 136 143 0
137 -138 144 0
-137 -138 -144 0
137 138 -144 0
-137 138 144 0
139 -140 145 0
-139 -140 -145 0
139 140 -145 0
-139 140 145 0
141 -142 146 0
-141 -142 -146 0
141 142 -146 0
-141 142 146 0
143 -144 147 0
-143 -144 -147 0
143 144 -147 0
-143 144 147 0
145 -146 148 0
-145 -146 -148 0
145 146 -148 0
-145 146 148 0
147 148 0
-147 -148 0
1 2 149 0
-1 2 -149 0
1 -2 -149 0
-1 -2 149 0
-3 4 150 0
3 4 -150 0
-3 -4 -150 0
3 -4 150 0
5 -6 151 0
-5 -6 -151 0
5 6 -151 0
-5 6 151 0
8 10 152 0
-8 10 -152 0
8 -10 -152 0
-8 -10 152 0
-16 17 153 0
16 17 -153 0
-16 -17 -153 0
16 -17 153 0
18 20 154 0
-18 20 -154 0
18 -20 -154 0
-18 -20 154 0
-21 -23 155 0
21 -23 -155 0
-21 23 -155 0
21 23 155 0
25 -27 156 0
-25 -27 -156 0
25 27 -156 0
-25 27 156 0
-30 31 157 0
30 31 -157 0
-30 -31 -157 0
30 -31 157 0
32 -33 158 0
-32 -33 -158 0
32 33 -158 0
-32 33 158 0
-38 40 159 0
38 40 -159 0
-38 -40 -159 0
38 -40 159 0
45 47 160 0
-45 47 -160 0
45 -47 -160 0
-45 -47 160 0
48 -50 161 0
-48 -50 -161 0
48 50 -161 0
-48 50 161 0
149 -150 162 0
-149 -150 -162 0
149 150 -162 0
-149 150 162 0
151 -152 163 0
-151 -152 -163 0
151 152 -163 0
-151 152 163 0
153 -154 164 0
-153 -154 -164 0
153 154 -164 0
-153 154 164 0
155 -156 165 0
-155 -156 -165 0
155 156 -165 0
-155 156 165 0
157 -158 166 0
-157 -158 -166 0
157 158 -166 0
-157 158 166 0
159 -160 167 0
-159 -160 -167 0
159 160 -167 0
-159 160 167 0
161 -162 168 0
-161 -162 -168 0
161 162 -168 0
-161 162 168 0
163 -164 169 0
-163 -164 -169 0
163 164 -169 0
-163 164 169 0
165 -166 170 0
-165 -166 -170 0
165 166 -170 0
-165 166 170 0
167 -168 171 0
-167 -168 -171 0
167 168 -171 0
-167 168 171 0
169 -170 172 0
-169 -170 -172 0
169 170 -172 0
-169 170 172 0
171 172 0
-171 -172 0
3 6 173 0
-3 6 -173 0
3 -6 -173 0
-3 -6 173 0
8 -9 174 0
-8 -9 -174 0
8 9 -174 0
-8 9 174 0
-10 17 175 0
10 17 -175 0
-10 -17 -175 0
10 -17 175 0
-19 21 176 0
19 21 -176 0
-19 -21 -176 0
19 -21 176 0
22 -28 177 0
-22 -28 -177 0
22 28 -177 0
-22 28 177 0
30 -31 178 0
-30 -31 -178 0
30 31 -178 0
-30 31 178 0
32 35 179 0
-32 35 -179 0
32 -35 -179 0
-32 -35 179 0
-39 -43 180 0
39 -43 -180 0
-39 43 -180 0
39 43 180 0
46 -49 181 0
-46 -49 -181 0
46 49 -181 0
-46 49 181 0
173 -174 182 0
-173 -174 -182 0
173 174 -182 0
-173 174 182 0
175 -176 183 0
-175 -176 -183 0
175 176 -183 0
-175 176 183 0
177 -178 184 0
-177 -178 -184 0
177 178 -184 0
-177 178 184 0
179 -180 185 0
-179 -180 -185 0
179 180 -185 0
-179 180 185 0
181 -182 186 0
-181 -182 -186 0
181 182 -186 0
-181 182 186 0
183 -184 187 0
-183 -184 -187 0
183 184 -187 0
-183 184 187 0
-185 -186 187 0
185 -186 -187 0
-185 186 -187 0
185 186 187 0
1 3 188 0
-1 3 -188 0
1 -3 -188 0
-1 -3 188 0
6 -7 189 0
-6 -7 -189 0
6 7 -189 0
-6 7 189 0
8 -11 190 0
-8 -11 -190 0
8 11 -190 0
-8 11 190 0
-12 13 191 0
12 13 -191 0
-12 -13 -191 0
12 -13 191 0
-14 15 192 0
14 15 -192 0
-14 -15 -192 0
14 -15 192 0
-17 -18 193 0
17 -18 -193 0
-17 18 -193 0
17 18 193 0
21 23 194 0
-21 23 -194 0
21 -23 -194 0
-21 -23 194 0
25 26 195 0
-25 26 -195 0
25 -26 -195 0
-25 -26 195 0
-27 -30 196 0
27 -30 -196 0
-27 30 -196 0
27 30 196 0
-32 -34 197 0
32 -34 -197 0
-32 34 -197 0
32 34 197 0
36 37 198 0
-36 37 -198 0
36 -37 -198 0
-36 -37 198 0
-38 42 199 0
38 42 -199 0
-38 -42 -199 0
38 -42 199 0
43 -45 200 0
-43 -45 -200 0
43 45 -200 0
-43 45 200 0
187 -188 201 0
-187 -188 -201 0
187 188 -201 0
-187 188 201 0
189 -190 202 0
-189 -190 -202 0
189 190 -202 0
-189 190 202 0
191 -192 203 0
-191 -192 -203 0
191 192 -203 0
-191 192 203 0
193 -194 204 0
-193 -194 -204 0
193 194 -204 0
-193 194 204 0
195 -196 205 0
-195 -196 -205 0
195 196 -205 0
-195 196 205 0
197 -198 206 0
-197 -198 -206 0
197 198 -206 0
-197 198 206 0
199 -200 207 0
-199 -200 -207 0
199 200 -207 0
-199 200 207 0
201 -202 208 0
-201 -202 -208 0
201 202 -208 0
-201 202 208 0
203 -204 209 0
-203 -204 -209 0
203 204 -209 0
-203 204 209 0
205 -206 210 0
-205 -206 -210 0
205 206 -210 0
-205 206 210 0
207 -208 211 0
-207 -208 -211 0
207 208 -211 0
-207 208 211 0
209 -210 212 0
-209 -210 -212 0
209 210 -212 0
-209 210 212 0
211 212 0
-211 -212 0
-3 4 213 0
3 4 -213 0
-3 -4 -213 0
3 -4 213 0
-5 -9 214 0
5 -9 -214 0
-5 9 -214 0
5 9 214 0
10 14 215 0
-10 14 -215 0
10 -14 -215 0
-10 -14 215 0
18 19 216 0
-18 19 -216 0
18 -19 -216 0
-18 -19 216 0
21 23 217 0
-21 23 -217 0
21 -23 -217 0
-21 -23 217 0
24 25 218 0
-24 25 -218 0
24 -25 -218 0
-24 -25 218 0
27 -28 219 0
-27 -28 -219 0
27 28 -219 0
-27 28 219 0
30 32 220 0
-30 32 -220 0
30 -32 -220 0
-30 -32 220 0
33 34 221 0
-33 34 -221 0
33 -34 -221 0
-33 -34 221 0
-36 37 222 0
36 37 -222 0
-36 -37 -222 0
36 -37 222 0
41 49 223 0
-41 49 -223 0
41 -49 -223 0
-41 -49 223 0
213 -214 224 0
-213 -214 -224 0
213 214 -224 0
-213 214 224 0
215 -216 225 0
-215 -216 -225 0
215 216 -225 0
-215 216 225 0
217 -218 226 0
-217 -218 -226 0
217 218 -226 0
-217 218 226 0
219 -220 227 0
-219 -220 -227 0
219 220 -227 0
-219 220 227 0
221 -222 228 0
-221 -222 -228 0
221 222 -228 0
-221 222 228 0
223 -224 229 0
-223 -224 -229 0
223 224 -229 0
-223 224 229 0
225 -226 230 0
-225 -226 -230 0
225 226 -230 0
-225 226 230 0
227 -228 231 0
-227 -228 -231 0
227 228 -231 0
-227 228 231 0
-229 -230 231 0
229 -230 -231 0
-229 230 -231 0
229 230 231 0
-2 -4 232 0
2 -4 -232 0
-2 4 -232 0
2 4 232 0
5 -6 233 0
-5 -6 -233 0
5 6 -233 0
-5 6 233 0
10 12 234 0
-10 12 -234 0
10 -12 -234 0
-10 -12 234 0
14 -16 235 0
-14 -16 -235 0
14 16 -235 0
-14 16 235 0
20 -21 236 0
-20 -21 -236 0
20 21 -236 0
-20 21 236 0
-22 23 237 0
22 23 -237 0
-22 -23 -237 0
22 -23 237 0
24 -25 238 0
-24 -25 -238 0
24 25 -238 0
-24 25 238 0
-29 30 239 0
29 30 -239 0
-29 -30 -239 0
29 -30 239 0
32 -45 240 0
-32 -45 -240 0
32 45 -240 0
-32 45 240 0
-46 47 241 0
46 47 -241 0
-46 -47 -241 0
46 -47 241 0
232 -233 242 0
-232 -233 -242 0
232 233 -242 0
-232 233 242 0
234 -235 243 0
-234 -235 -243 0
234 235 -243 0
-234 235 243 0
236 -237 244 0
-236 -237 -244 0
236 237 -244 0
-236 237 244 0
238 -239 245 0
-238 -239 -245 0
238 239 -245 0
-238 239 245 0
240 -241 246 0
-240 -241 -246 0
240 241 -246 0
-240 241 246 0
242 -243 247 0
-242 -243 -247 0
242 243 -247 0
-242 243 247 0
244 -245 248 0
-244 -245 -248 0
244 245 -248 0
-244 245 248 0
-246 -247 248 0
246 -247 -248 0
-246 247 -248 0
246 247 248 0
2 6 249 0
-2 6 -249 0
2 -6 -249 0
-2 -6 249 0
-7 -10 250 0
7 -10 -250 0
-7 10 -250 0
7 10 250 0
11 14 251 0
-11 14 -251 0
11 -14 -251 0
-11 -14 251 0
-15 16 252 0
15 16 -252 0
-15 -16 -252 0
15 -16 252 0
17 21 253 0
-17 21 -253 0
17 -21 -253 0
-17 -21 253 0
-22 26 254 0
22 26 -254 0
-22 -26 -254 0
22 -26 254 0
-29 30 255 0
29 30 -255 0
-29 -30 -255 0
29 -30 255 0
-32 -34 256 0
32 -34 -256 0
-32 34 -256 0
32 34 256 0
-35 -37 257 0
35 -37 -257 0
-35 37 -257 0
35 37 257 0
39 40 258 0
-39 40 -258 0
39 -40 -258 0
-39 -40 258 0
41 -44 259 0
-41 -44 -259 0
41 44 -259 0
-41 44 259 0
248 -249 260 0
-248 -249 -260 0
248 249 -260 0
-248 249 260 0
250 -251 261 0
-250 -251 -261 0
250 251 -261 0
-250 251 261 0
252 -253 262 0
-252 -253 -262 0
252 253 -262 0
-252 253 262 0
254 -255 263 0
-254 -255 -263 0
254 255 -263 0
-254 255 263 0
256 -257 264 0
-256 -257 -264 0
256 257 -264 0
-256 257 264 0
258 -259 265 0
-258 -259 -265 0
258 259 -265 0
-258 259 265 0
260 -261 266 0
-260 -261 -266 0
260 261 -266 0
-260 261 266 0
262 -263 267 0
-262 -263 -267 0
262 263 -267 0
-262 263 267 0
264 -265 268 0
-264 -265 -268 0
264 265 -268 0
-264 265 268 0
-266 -267 268 0
266 -267 -268 0
-266 267 -268 0
266 267 268 0
-12 269 0
-24 269 0
-12 -24 270 0
-23 269 0
-12 -23 270 0
-24 -23 270 0
-12 -24 -23 271 0
-22 272 0
-21 272 0
-22 -21 273 0
-20 272 0
-22 -20 273 0
-21 -20 273 0
-22 -21 -20 274 0
-269 275 0
-270 276 0
-271 277 0
-272 275 0
-273 276 0
-274 277 0
-269 -272 276 0
-269 -273 277 0
-269 -274 278 0
-270 -272 277 0
-270 -273 278 0
-270 -274 279 0
-271 -272 278 0
-271 -273 279 0
-271 -274 280 0
-19 281 0
-18 281 0
-19 -18 282 0
-17 281 0
-19 -17 282 0
-18 -17 282 0
-19 -18 -17 283 0
-16 284 0
-15 284 0
-16 -15 285 0
-14 284 0
-16 -14 285 0
-15 -14 285 0
-16 -15 -14 286 0
-281 287 0
-282 288 0
-283 289 0
-284 287 0
-285 288 0
-286 289 0
-281 -284 288 0
-281 -285 289 0
-281 -286 290 0
-282 -284 289 0
-282 -285 290 0
-282 -286 291 0
-283 -284 290 0
-283 -285 291 0
-283 -286 292 0
-275 293 0
-277 294 0
-279 295 0
-287 293 0
-289 294 0
-291 295 0
-275 -287 294 0
-275 -289 295 0
-275 -291 296 0
-277 -287 295 0
-277 -289 296 0
-277 -291 297 0
-279 -287 296 0
-279 -289 297 0
-279 -291 298 0
-276 299 0
-278 300 0
-280 301 0
-288 299 0
-290 300 0
-292 301 0
-276 -288 300 0
-276 -290 301 0
-276 -292 302 0
-278 -288 301 0
-278 -290 302 0
-278 -292 303 0
-280 -288 302 0
-280 -290 303 0
-280 -292 304 0
-294 305 0
-299 305 0
-294 -299 306 0
-295 307 0
-300 307 0
-295 -300 308 0
-296 309 0
-301 309 0
-296 -301 310 0
-297 311 0
-302 311 0
-297 -302 312 0
-298 313 0
-303 313 0
-298 -303 314 0
-13 315 0
-25 315 0
-13 -25 316 0
-11 315 0
-13 -11 316 0
-25 -11 316 0
-13 -25 -11 317 0
-10 318 0
-9 318 0
-10 -9 319 0
-8 318 0
-10 -8 319 0
-9 -8 319 0
-10 -9 -8 320 0
-315 321 0
-316 322 0
-317 323 0
-318 321 0
-319 322 0
-320 323 0
-315 -318 322 0
-315 -319 323 0
-315 -320 324 0
-316 -318 323 0
-316 -319 324 0
-316 -320 325 0
-317 -318 324 0
-317 -319 325 0
-317 -320 326 0
-7 327 0
-6 327 0
-7 -6 328 0
-5 327 0
-7 -5 328 0
-6 -5 328 0
-7 -6 -5 329 0
-4 330 0
-3 330 0
-4 -3 331 0
-2 330 0
-4 -2 331 0
-3 -2 331 0
-4 -3 -2 332 0
-327 333 0
-328 334 0
-329 335 0
-330 333 0
-331 334 0
-332 335 0
-327 -330 334 0
-327 -331 335 0
-327 -332 336 0
-328 -330 335 0
-328 -331 336 0
-328 -332 337 0
-329 -330 336 0
-329 -331 337 0
-329 -332 338 0
-321 339 0
-323 340 0
-325 341 0
-333 339 0
-335 340 0
-337 341 0
-321 -333 340 0
-321 -335 341 0
-321 -337 342 0
-323 -333 341 0
-323 -335 342 0
-323 -337 343 0
-325 -333 342 0
-325 -335 343 0
-325 -337 344 0
-322 345 0
-324 346 0
-326 347 0
-334 345 0
-336 346 0
-338 347 0
-322 -334 346 0
-322 -336 347 0
-322 -338 348 0
-324 -334 347 0
-324 -336 348 0
-324 -338 349 0
-326 -334 348 0
-326 -336 349 0
-326 -338 350 0
-340 351 0
-345 351 0
-340 -345 352 0
-341 353 0
-346 353 0
-341 -346 354 0
-342 355 0
-347 355 0
-342 -347 356 0
-343 357 0
-348 357 0
-343 -348 358 0
-344 359 0
-349 359 0
-344 -349 360 0
-1 361 0
-37 361 0
-1 -37 362 0
-49 361 0
-1 -49 362 0
-37 -49 362 0
-1 -37 -49 363 0
-48 364 0
-47 364 0
-48 -47 365 0
-46 364 0
-48 -46 365 0
-47 -46 365 0
-48 -47 -46 366 0
-361 367 0
-362 368 0
-363 369 0
-364 367 0
-365 368 0
-366 369 0
-361 -364 368 0
-361 -365 369 0
-361 -366 370 0
-362 -364 369 0
-362 -365 370 0
-362 -366 371 0
-363 -364 370 0
-363 -365 371 0
-363 -366 372 0
-45 373 0
-44 373 0
-45 -44 374 0
-43 373 0
-45 -43 374 0
-44 -43 374 0
-45 -44 -43 375 0
-42 376 0
-41 376 0
-42 -41 377 0
-40 376 0
-42 -40 377 0
-41 -40 377 0
-42 -41 -40 378 0
-373 379 0
-374 380 0
-375 381 0
-376 379 0
-377 380 0
-378 381 0
-373 -376 380 0
-373 -377 381 0
-373 -378 382 0
-374 -376 381 0
-374 -377 382 0
-374 -378 383 0
-375 -376 382 0
-375 -377 383 0
-375 -378 384 0
-367 385 0
-369 386 0
-371 387 0
-379 385 0
-381 386 0
-383 387 0
-367 -379 386 0
-367 -381 387 0
-367 -383 388 0
-369 -379 387 0
-369 -381 388 0
-369 -383 389 0
-371 -379 388 0
-371 -381 389 0
-371 -383 390 0
-368 391 0
-370 392 0
-372 393 0
-380 391 0
-382 392 0
-384 393 0
-368 -380 392 0
-368 -382 393 0
-368 -384 394 0
-370 -380 393 0
-370 -382 394 0
-370 -384 395 0
-372 -380 394 0
-372 -382 395 0
-372 -384 396 0
-386 397 0
-391 397 0
-386 -391 398 0
-387 399 0
-392 399 0
-387 -392 400 0
-388 401 0
-393 401 0
-388 -393 402 0
-389 403 0
-394 403 0
-389 -394 404 0
-390 405 0
-395 405 0
-390 -395 406 0
-39 407 0
-38 407 0
-39 -38 408 0
-50 407 0
-39 -50 408 0
-38 -50 408 0
-39 -38 -50 409 0
-36 410 0
-35 410 0
-36 -35 411 0
-34 410 0
-36 -34 411 0
-35 -34 411 0
-36 -35 -34 412 0
-407 413 0
-408 414 0
-409 415 0
-410 413 0
-411 414 0
-412 415 0
-407 -410 414 0
-407 -411 415 0
-407 -412 416 0
-408 -410 415 0
-408 -411 416 0
-408 -412 417 0
-409 -410 416 0
-409 -411 417 0
-409 -412 418 0
-33 419 0
-32 419 0
-33 -32 420 0
-31 419 0
-33 -31 420 0
-32 -31 420 0
-33 -32 -31 421 0
-30 422 0
-29 422 0
-30 -29 423 0
-28 424 0
-27 424 0
-28 -27 425 0
-26 424 0
-28 -26 425 0
-27 -26 425 0
-28 -27 -26 426 0
-422 427 0
-423 428 0
-424 427 0
-425 428 0
-426 429 0
-422 -424 428 0
-422 -425 429 0
-422 -426 430 0
-423 -424 429 0
-423 -425 430 0
-423 -426 431 0
-419 432 0
-420 433 0
-421 434 0
-427 432 0
-428 433 0
-429 434 0
-430 435 0
-431 436 0
-419 -427 433 0
-419 -428 434 0
-419 -429 435 0
-419 -430 436 0
-419 -431 437 0
-420 -427 434 0
-420 -428 435 0
-420 -429 436 0
-420 -430 437 0
-420 -431 438 0
-421 -427 435 0
-421 -428 436 0
-421 -429 437 0
-421 -430 438 0
-421 -431 439 0
-413 440 0
-415 441 0
-417 442 0
-432 440 0
-434 441 0
-436 442 0
-438 443 0
-413 -432 441 0
-413 -434 442 0
-413 -436 443 0
-413 -438 444 0
-415 -432 442 0
-415 -434 443 0
-415 -436 444 0
-415 -438 445 0
-417 -432 443 0
-417 -434 444 0
-417 -436 445 0
-417 -438 446 0
-414 447 0
-416 448 0
-418 449 0
-433 447 0
-435 448 0
-437 449 0
-439 450 0
-414 -433 448 0
-414 -435 449 0
-414 -437 450 0
-414 -439 451 0
-416 -433 449 0
-416 -435 450 0
-416 -437 451 0
-416 -439 452 0
-418 -433 450 0
-418 -435 451 0
-418 -437 452 0
-418 -439 453 0
-441 454 0
-447 454 0
-441 -447 455 0
-442 456 0
-448 456 0
-442 -448 457 0
-443 458 0
-449 458 0
-443 -449 459 0
-444 460 0
-450 460 0
-444 -450 461 0
-445 462 0
-451 462 0
-445 -451 463 0
-446 464 0
-452 464 0
-446 -452 465 0
-385 466 0
-400 467 0
-404 468 0
-440 466 0
-457 467 0
-461 468 0
-465 469 0
-385 -440 467 0
-385 -457 468 0
-385 -461 469 0
-385 -465 470 0
-400 -440 468 0
-400 -457 469 0
-400 -461 470 0
-404 -440 469 0
-404 -457 470 0
-398 471 0
-402 472 0
-406 473 0
-455 471 0
-459 472 0
-463 473 0
-398 -455 472 0
-398 -459 473 0
-398 -463 474 0
-402 -455 473 0
-402 -459 474 0
-406 -455 474 0
-467 475 0
-471 475 0
-467 -471 476 0
-468 477 0
-472 477 0
-468 -472 478 0
-469 479 0
-473 479 0
-469 -473 480 0
-470 481 0
-474 481 0
-470 -474 482 0
-397 483 0
-401 484 0
-405 485 0
-454 483 0
-458 484 0
-462 485 0
-453 486 0
-397 -454 484 0
-397 -458 485 0
-397 -462 486 0
-397 -453 487 0
-401 -454 485 0
-401 -458 486 0
-401 -462 487 0
-405 -454 486 0
-405 -458 487 0
-399 488 0
-403 489 0
-396 490 0
-456 488 0
-460 489 0
-464 490 0
-399 -456 489 0
-399 -460 490 0
-399 -464 491 0
-403 -456 490 0
-403 -460 491 0
-396 -456 491 0
-484 492 0
-488 492 0
-484 -488 493 0
-485 494 0
-489 494 0
-485 -489 495 0
-486 496 0
-490 496 0
-486 -490 497 0
-487 498 0
-491 498 0
-475 499 0
-483 499 0
-475 -483 500 0
-476 501 0
-492 501 0
-476 -492 502 0
-477 503 0
-493 503 0
-477 -493 504 0
-478 505 0
-494 505 0
-478 -494 506 0
-479 507 0
-495 507 0
-479 -495 508 0
-480 509 0
-496 509 0
-480 -496 510 0
-481 511 0
-497 511 0
-481 -497 512 0
-482 513 0
-498 513 0
-339 514 0
-354 515 0
-358 516 0
-466 514 0
-502 515 0
-506 516 0
-510 517 0
-339 -466 515 0
-339 -502 516 0
-339 -506 517 0
-339 -510 518 0
-354 -466 516 0
-354 -502 517 0
-354 -506 518 0
-358 -466 517 0
-358 -502 518 0
-352 519 0
-356 520 0
-360 521 0
-500 519 0
-504 520 0
-508 521 0
-512 522 0
-352 -500 520 0
-352 -504 521 0
-352 -508 522 0
-356 -500 521 0
-356 -504 522 0
-360 -500 522 0
-515 523 0
-519 523 0
-515 -519 524 0
-516 525 0
-520 525 0
-516 -520 526 0
-517 527 0
-521 527 0
-517 -521 528 0
-518 529 0
-522 529 0
-518 -522 530 0
-351 531 0
-355 532 0
-359 533 0
-499 531 0
-503 532 0
-507 533 0
-511 534 0
-351 -499 532 0
-351 -503 533 0
-351 -507 534 0
-351 -511 535 0
-355 -499 533 0
-355 -503 534 0
-355 -507 535 0
-359 -499 534 0
-359 -503 535 0
-353 536 0
-357 537 0
-350 538 0
-501 536 0
-505 537 0
-509 538 0
-513 539 0
-353 -501 537 0
-353 -505 538 0
-353 -509 539 0
-357 -501 538 0
-357 -505 539 0
-350 -501 539 0
-532 540 0
-536 540 0
-532 -536 541 0
-533 542 0
-537 542 0
-533 -537 543 0
-534 544 0
-538 544 0
-534 -538 545 0
-535 546 0
-539 546 0
-523 547 0
-531 547 0
-523 -531 548 0
-524 549 0
-540 549 0
-524 -540 550 0
-525 551 0
-541 551 0
-525 -541 552 0
-526 553 0
-542 553 0
-526 -542 554 0
-527 555 0
-543 555 0
-527 -543 556 0
-528 557 0
-544 557 0
-528 -544 558 0
-529 559 0
-545 559 0
-529 -545 560 0
-530 561 0
-546 561 0
-293 562 0
-308 563 0
-312 564 0
-514 562 0
-550 563 0
-554 564 0
-558 565 0
-293 -514 563 0
-293 -550 564 0
-293 -554 565 0
-293 -558 566 0
-308 -514 564 0
-308 -550 565 0
-308 -554 566 0
-312 -514 565 0
-312 -550 566 0
-306 567 0
-310 568 0
-314 569 0
-548 567 0
-552 568 0
-556 569 0
-560 570 0
-306 -548 568 0
-306 -552 569 0
-306 -556 570 0
-310 -548 569 0
-310 -552 570 0
-314 -548 570 0
-563 571 0
-567 571 0
-563 -567 572 0
-564 573 0
-568 573 0
-564 -568 574 0
-565 575 0
-569 575 0
-565 -569 576 0
-566 577 0
-570 577 0
-566 -570 578 0
-305 579 0
-309 580 0
-313 581 0
-547 579 0
-551 580 0
-555 581 0
-559 582 0
-305 -547 580 0
-305 -551 581 0
-305 -555 582 0
-305 -559 583 0
-309 -547 581 0
-309 -551 582 0
-309 -555 583 0
-313 -547 582 0
-313 -551 583 0
-307 584 0
-311 585 0
-304 586 0
-549 584 0
-553 585 0
-557 586 0
-561 587 0
-307 -549 585 0
-307 -553 586 0
-307 -557 587 0
-311 -549 586 0
-311 -553 587 0
-304 -549 587 0
-580 588 0
-584 588 0
-580 -584 589 0
-581 590 0
-585 590 0
-581 -585 591 0
-582 592 0
-586 592 0
-582 -586 593 0
-583 594 0
-587 594 0
-571 595 0
-579 595 0
-571 -579 596 0
-572 597 0
-588 597 0
-572 -588 598 0
-573 599 0
-589 599 0
-573 -589 600 0
-574 601 0
-590 601 0
-574 -590 602 0
-575 603 0
-591 603 0
-575 -591 604 0
-576 605 0
-592 605 0
-576 -592 606 0
-577 607 0
-593 607 0
-577 -593 608 0
-578 609 0
-594 609 0
-609 0
